NAME : 0.84138.tour
COMMENT : Length = 84138
COMMENT : Found by LKH-3 [Keld Helsgaun] Tue Apr  9 01:08:16 2024
TYPE : TOUR
DIMENSION : 85
TOUR_SECTION
1
54
12
67
66
39
85
76
29
62
23
63
34
7
81
18
33
51
19
25
50
17
82
64
24
57
42
65
43
44
2
74
79
69
3
75
22
48
49
31
80
8
36
15
60
20
55
14
9
84
73
40
10
26
56
32
11
59
78
5
46
28
53
47
35
83
52
4
45
41
13
27
68
77
30
6
37
70
72
61
71
21
38
16
58
-1
EOF
